6479
6503
6530
6487
6523
6660
6575
6626
6398
6574
6461
6542
6483
6513
6576
6597
6657
6554
6589
6561
6551
6561
6509
6589
6602
6515
6651
6558
6617
6480
6573
6579
6586
6669
6528
6521
6535
6491
6631
6567
6530
6448
6647
6623
6644
6497
6615
6498
6621
6572
6560
6434
6553
6542
6576
6648
6540
6584
6622
6547
6669
6476
6573
6578
6574
6644
6577
6552
6601
6665
6549
6588
6617
6591
6622
6622
6644
6427
6519
6530
6579
6613
6591
6601
6509
6690
6682
6584
6478
6454
6577
6648
6586
6639
6631
6478
6680
6685
6517
6602
